NAME : A-n32-k5
COMMENT : (Augerat et al, No of trucks: 5, Optimal value: 784)
TYPE : CVRP
DIMENSION : 11
EDGE_WEIGHT_TYPE : EUC_2D 
CAPACITY : 100
NODE_COORD_SECTION 
 1 0 0
 2 1 1
 3 2 2
 4 3 3
 5 4 4
DEMAND_SECTION 
1 0 
2 30 
3 50 
4 20 
5 0 
DEPOT_SECTION 
 1  
 -1  
EOF 
